In  O  H 
 1.0000000000000000
    14.2830999999999992    0.0000000000000000    0.0000000000000000
    -7.1415499999999996   12.3695274400000006    0.0000000000000000
     0.0000000000000000    0.0000000000000000   22.9045999999999985
 In  O   H  
  48  72   1
Selective dynamics
Cartesian
  5.1059226371330899  3.2686014086537343  9.1155121521093125   F   F   F
  5.6009034184999438  7.0742564382104325  5.8370082640000343   F   F   F
 -1.5267354541770621 11.2253689428041312 11.8770986916339414   T   T   T
 -2.0299855874999504  7.3567764449399720  6.2364644880000473   F   F   F
  5.1710862286236114 11.4688800491549614 12.0971232663262693   T   T   T
 -1.5345158516029658  2.9651311368366198  8.7926813926539040   F   F   F
  8.8993872803089609  2.7872190009579816  9.1155911629381787   F   F   F
  5.3561624999999493  1.3133964235792235  5.8370082640000343   F   F   F
 -1.8089783745620143  5.4505738567219373 11.8782871021006571   T   T   T
  1.7854589155000220  6.9329964348456183  6.2364644880000473   F   F   F
 -5.3416469802844349 11.1100582990933319 12.0961442802876213   T   T   T
  5.3406771485427296  9.5583804374062105  8.7923518900179172   F   F   F
  7.4199628149169552  6.3136783063141468  9.1149893346287758   F   F   F
 10.4675840814999539  3.9818745782104323  5.8370082640000343   F   F   F
  3.4378949472018947  8.1608167056641445 11.7622218051654528   T   T   T
  0.2447409184999950 10.4491583049399726  6.2364644880000473   F   F   F
  0.1996033176742493  2.1614223494844755 12.0969689145094286   T   T   T
 -3.8060867593734402 12.2155088251935151  8.7933608624127899   F   F   F
  2.0301284184999440  0.8894927182104322  5.8370082640000343   F   F   F
  9.2372334639417968  4.9487460960115213 11.6115755338780779   T   T   T
  8.6907763653404810  9.4038601865633407  9.1770228671277021   F   F   F
  2.0298553683211957  9.1084115575792204  8.8565206026291001   F   F   F
  8.6823394125000490  1.1720127249399717  6.2364644880000473   F   F   F
  1.4509044676555198  5.2611266050981635 11.9227655623420432   T   T   T
 12.4977124999999489  1.3133964235792235  5.8370082640000343   F   F   F
  5.3985069837534194  5.5159512890837901 11.6183313800882910   T   T   T
  1.7935575144442428  2.8245209132531293  9.1771890039081416   F   F   F
 -1.7615678230719256  9.5724959658245847  8.8566022517585576   F   F   F
  8.9270089155000214  6.9329964348456183  6.2364644880000473   F   F   F
  1.7958071198169205 10.9786544700212989 12.0041826785819659   T   T   T
  6.8968090814999545 10.1666382982104331  5.8370082640000343   F   F   F
  6.8224834696243040  1.9074937158646634 11.6129867990635649   T   T   T
 10.9400581488108486  0.1410732754065803  9.1769994246187494   F   F   F
 -0.2681249605704447  6.0575377996227981  8.8566114689295432   F   F   F
  3.8155159184999943  4.2643945849399723  6.2364644880000473   F   F   F
 -3.2634268372181738  8.4399518881587312 12.0118630072908346   T   T   T
  7.1416214155000723  4.1231345815751581  6.0367363759999577   F   F   F
 -0.0658223565508950  8.2965401015297857 12.0892894366570012   T   T   T
  3.5708464155000730 10.3078983015751575  6.0367363759999577   F   F   F
  3.5605371040046530  1.9240696089501785 11.8494687488124733   T   T   T
  0.0000714155000730  4.1231345815751581  6.0367363759999577   F   F   F
  7.0765634231144290  8.3255527728463132 11.8517256714327992   T   T   T
 -3.5707035844999266 10.3078983015751575  6.0367363759999577   F   F   F
 10.8275473010020153  2.1085674596889299 11.8508429992334019   T   T   T
  7.1414897201216716 12.3694588581464462  8.9632627093319392   F   F   F
 -3.5442368031855263  6.1727268049613029  8.9732624143862871   F   F   F
 -0.0231697160155745 12.3512338166142808  8.9738976506307075   F   F   F
  3.5681635554701985  6.2134618645643194  8.9731278720581997   F   F   F
  6.8200374190000446  0.1279009137295913  6.8102247180000521   F   F   F
 -0.2287105780195003  4.1760464232756620 12.5939953106026898   T   T   T
  6.8251723357762311  8.3290255219991529  9.7318996165943048   F   F   F
  3.8991700423112339  8.2339358015629838  9.5569725027605088   F   F   F
  3.8922875810000579  0.0004947810975814  6.6301945620000318   F   F   F
 10.9559558970434594  4.0897901662806770 12.4436648756898123   T   T   T
 -5.4666045788526274 11.4426113256250979 10.0036778363888743   F   F   F
  8.8166005524999900  3.2137269241864215  7.0733985719999355   F   F   F
  1.6717923232626186  7.1705866007447989 13.0857365574819227   T   T   T
  9.0087589501792191  4.8568064465021967  9.4917467918420311   F   F   F
  1.8956530319999858  9.0272811257119674  6.5486541860000278   F   F   F
  1.8257868513156426  0.8320102550238322 12.5073696717891476   T   T   T
 10.7623158499999843  5.8423752004608422  6.8102247180000521   F   F   F
  3.6625009445522951 10.0775723960076551 12.5973873874306577   T   T   T
  3.6573753099798418  1.7462925857210088  9.7319649104904631   F   F   F
 -1.9386962787706170 11.6293032989566836  9.5571525275441545   F   F   F
 12.3365991320000106  3.3704488368512200  6.6301945620000318   F   F   F
  5.2865342775825548  7.4393103793677353 12.4395891372209935   T   T   T
 -0.0348415580924338  1.9135695223965479 10.0038743046565024   F   F   F
  7.0916305654999858  6.0285365884327824  7.0733985719999355   F   F   F
  0.0796479021258951 10.2275066357534641 12.9620204562189603   T   T   T
  5.5724734362604593  5.3733678130280422  9.4914461222013085   F   F   F
 -1.6241313009999641  9.4975705589808062  6.5486541860000278   F   F   F
 12.6607955656790203  1.1685815588053956 12.5161459996675877   T   T   T
  3.8422967309999705  6.3992513258095665  6.8102247180000521   F   F   F
 -3.3994237817476098 10.5007001219635825 12.6052273781414215   T   T   T
 10.9424864131194255  2.2939240324787695  9.7322501635351895   F   F   F
 -1.9601231167275801  4.8758233488869678  9.5571321152485655   F   F   F
  5.1959775334999998  8.9984601267767594  6.6301945620000318   F   F   F
  5.2265753440481655  0.8577660869658115 12.4541721077506811   T   T   T
  5.5015044311494421 11.3825946593923568 10.0036635876192452   F   F   F
  5.5164188820000222  3.1272639273807981  7.0733985719999355   F   F   F
 -1.7392381292088162  7.3150390564569623 12.9650652708406948   T   T   T
  6.8433380737000071  2.1387159575474830  9.4912390553939066   F   F   F
 -0.2715217310000219  6.2142031953072285  6.5486541860000278   F   F   F
  6.9586919744973299 10.3849146403287023 12.4989933680781427   T   T   T
  0.3171175215618398  4.0249805846028206  8.2007859684646593   F   F   F
  7.4629911655000338  8.1184919446951636  5.2632480340000294   F   F   F
  0.3294477263551315 12.2495370250243276 11.1079808518698187   T   T   T
 -3.8921447500000625  8.2457743820528222  5.4432781900000480   F   F   F
 10.3737330654434174  0.0816363890508258 11.3906128166552634   T   T   T
  3.2500592305046090  4.1637843301391388  8.4228034078662386   F   F   F
  5.4664994475000590  5.0325422389639831  5.0000741799999835   F   F   F
 -1.6184861837109759  9.2205332941843263 10.8921049263702585   T   T   T
 12.5979302676639939  0.9363728990271432  7.9536770812343391   F   F   F
  5.2458969679999630 11.5885154774384365  5.5248185660000546   F   F   F
  5.2391869834657205  3.4518525321069840 11.6312158751142789   T   T   T
 -1.8674494155431405  7.4936018488519620  8.4230142893360380   F   F   F
  3.4975718045038984 10.6319401545881860  8.2008081474061267   F   F   F
  3.5207841500000647  2.4038939626895606  5.2632480340000294   F   F   F
 -3.6261822839112305  6.5258225390807594 11.1116328503672488   T   T   T
  1.9466436989999836  4.8758203262991824  5.4432781900000480   F   F   F
  9.0417668309697117  8.9370971557294858 11.3769458602690996   T   T   T
  9.0519364603491610  0.7328014795388347  8.4230041890754084   F   F   F
  7.1916122655000070  2.2177325747176213  5.0000741799999835   F   F   F
  0.0153663599798978  6.4183883570306248 10.9210493413879970   T   T   T
  7.1728234372985149 10.4420801122604416  7.9535764998955099   F   F   F
 -5.5173472835000625 11.1183497394440387  5.5248185660000546   F   F   F
  8.6819976089299189  2.8260173691713435 11.6321416514858420   T   T   T
  1.5854150909337490  7.0054359562447734  8.4228967116227036   F   F   F
 -3.8144492489557567 10.0824359599127149  8.2010418118753954   F   F   F
 10.4408746845000522  1.8471415326151890  5.2632480340000294   F   F   F
  3.2599929979453917  6.0316808994324225 11.1525070402944237   T   T   T
  1.9457152975000449 11.6173364763735556  5.4432781900000480   F   F   F
  2.0440473641698431  3.3325677709285997 11.3587050855414216   T   T   T
  9.1223208549549355  7.4730267560577692  8.4229746716218798   F   F   F
  8.7667525335000001  5.1191289310439565  5.0000741799999835   F   F   F
  1.6520242070198057  9.0934974086021008 10.9354530421881257   T   T   T
  1.6536898704960827  0.9911352691590165  7.9536742616725151   F   F   F
  0.2714503154999485  2.0321896631176153  5.5248185660000546   F   F   F
  7.5057008027995531  6.1044736377098836 11.6339283387507457   T   T   T
  0.2819261011864851 10.2396674650984636  8.4232233791921285   F   F   F
  1.6671733522918519  7.2259902557296893 14.0593796065701735   T   T   T
