In  O  C  H 
 1.0000000000000000
    14.2830999999999992    0.0000000000000000    0.0000000000000000
    -7.1415499999999996   12.3695274400000006    0.0000000000000000
     0.0000000000000000    0.0000000000000000   22.9045999999999985
 In  O   C   H  
  48  74   1   1
Selective dynamics
Cartesian
  5.1059226371330899  3.2686014086537343  9.1155121521093125   F   F   F
  5.6009034184999438  7.0742564382104325  5.8370082640000343   F   F   F
 -1.5307296358509501 11.2176859664503574 11.8794922449007867   T   T   T
 -2.0299855874999504  7.3567764449399720  6.2364644880000473   F   F   F
  5.1583777123316068 11.4578975101247558 12.1018868110731503   T   T   T
 -1.5345158516029658  2.9651311368366198  8.7926813926539040   F   F   F
  8.8993872803089609  2.7872190009579816  9.1155911629381787   F   F   F
  5.3561624999999493  1.3133964235792235  5.8370082640000343   F   F   F
 -1.7997566411736465  5.4322790574076230 11.8673552699395177   T   T   T
  1.7854589155000220  6.9329964348456183  6.2364644880000473   F   F   F
 -5.3495398927683331 11.1019518307711262 12.1038831164872249   T   T   T
  5.3406771485427296  9.5583804374062105  8.7923518900179172   F   F   F
  7.4199628149169552  6.3136783063141468  9.1149893346287758   F   F   F
 10.4675840814999539  3.9818745782104323  5.8370082640000343   F   F   F
  3.3910425847233512  8.1411841352486238 11.8250339890542353   T   T   T
  0.2447409184999950 10.4491583049399726  6.2364644880000473   F   F   F
  0.1907515203493728  2.1505825706068693 12.0982939966504421   T   T   T
 -3.8060867593734402 12.2155088251935151  8.7933608624127899   F   F   F
  2.0301284184999440  0.8894927182104322  5.8370082640000343   F   F   F
  9.2200587609118934  4.9479649618858437 11.6190506770856032   T   T   T
  8.6907763653404810  9.4038601865633407  9.1770228671277021   F   F   F
  2.0298553683211957  9.1084115575792204  8.8565206026291001   F   F   F
  8.6823394125000490  1.1720127249399717  6.2364644880000473   F   F   F
  1.4934699488451844  5.2191752264065929 12.0575877134301308   T   T   T
 12.4977124999999489  1.3133964235792235  5.8370082640000343   F   F   F
  5.3495404391758292  5.5191171884961410 11.6290918970941917   T   T   T
  1.7935575144442428  2.8245209132531293  9.1771890039081416   F   F   F
 -1.7615678230719256  9.5724959658245847  8.8566022517585576   F   F   F
  8.9270089155000214  6.9329964348456183  6.2364644880000473   F   F   F
  1.7835398219277252 10.9739346162608999 12.0057230883395256   T   T   T
  6.8968090814999545 10.1666382982104331  5.8370082640000343   F   F   F
  6.8008087666224251  1.9051486648812173 11.6093710710234657   T   T   T
 10.9400581488108486  0.1410732754065803  9.1769994246187494   F   F   F
 -0.2681249605704447  6.0575377996227981  8.8566114689295432   F   F   F
  3.8155159184999943  4.2643945849399723  6.2364644880000473   F   F   F
 -3.2581265211861057  8.4279534818407740 12.0071349648050507   T   T   T
  7.1416214155000723  4.1231345815751581  6.0367363759999577   F   F   F
 -0.0423867747191177  8.2753502307292290 12.1053042454069519   T   T   T
  3.5708464155000730 10.3078983015751575  6.0367363759999577   F   F   F
  3.5417002424880417  1.9389384816851865 11.8567092245806656   T   T   T
  0.0000714155000730  4.1231345815751581  6.0367363759999577   F   F   F
  7.0661400201220719  8.3185442057278003 11.8535302061244483   T   T   T
 -3.5707035844999266 10.3078983015751575  6.0367363759999577   F   F   F
 10.8193405126748061  2.1030385230575308 11.8510445010595031   T   T   T
  7.1414897201216716 12.3694588581464462  8.9632627093319392   F   F   F
 -3.5442368031855263  6.1727268049613029  8.9732624143862871   F   F   F
 -0.0231697160155745 12.3512338166142808  8.9738976506307075   F   F   F
  3.5681635554701985  6.2134618645643194  8.9731278720581997   F   F   F
  6.8200374190000446  0.1279009137295913  6.8102247180000521   F   F   F
 -0.2981729433331970  4.1187133106675171 12.5299702352509321   T   T   T
  6.8251723357762311  8.3290255219991529  9.7318996165943048   F   F   F
  3.8991700423112339  8.2339358015629838  9.5569725027605088   F   F   F
  3.8922875810000579  0.0004947810975814  6.6301945620000318   F   F   F
 10.9267782715695905  4.0834655295406010 12.4373173672667630   T   T   T
 -5.4666045788526274 11.4426113256250979 10.0036778363888743   F   F   F
  8.8166005524999900  3.2137269241864215  7.0733985719999355   F   F   F
  1.7344533230817398  7.3882073628972833 13.0456755049249047   T   T   T
  9.0087589501792191  4.8568064465021967  9.4917467918420311   F   F   F
  1.8956530319999858  9.0272811257119674  6.5486541860000278   F   F   F
  1.8117837218358344  0.8122386954739368 12.5053823942851494   T   T   T
 10.7623158499999843  5.8423752004608422  6.8102247180000521   F   F   F
  3.6546011723791230 10.0968243931865125 12.5728744860856221   T   T   T
  3.6573753099798418  1.7462925857210088  9.7319649104904631   F   F   F
 -1.9386962787706170 11.6293032989566836  9.5571525275441545   F   F   F
 12.3365991320000106  3.3704488368512200  6.6301945620000318   F   F   F
  5.2835634273359453  7.4496414032147049 12.4131736262715009   T   T   T
 -0.0348415580924338  1.9135695223965479 10.0038743046565024   F   F   F
  7.0916305654999858  6.0285365884327824  7.0733985719999355   F   F   F
  0.0509907879266401 10.2381619443033109 12.9436477208934324   T   T   T
  5.5724734362604593  5.3733678130280422  9.4914461222013085   F   F   F
 -1.6241313009999641  9.4975705589808062  6.5486541860000278   F   F   F
 12.6450846145116866  1.1459932634129546 12.4966866431911683   T   T   T
  3.8422967309999705  6.3992513258095665  6.8102247180000521   F   F   F
 -3.4043600567362677 10.4900844304656964 12.5893484126088939   T   T   T
 10.9424864131194255  2.2939240324787695  9.7322501635351895   F   F   F
 -1.9601231167275801  4.8758233488869678  9.5571321152485655   F   F   F
  5.1959775334999998  8.9984601267767594  6.6301945620000318   F   F   F
  5.2009604520416710  0.8514422732533909 12.4369528190413341   T   T   T
  5.5015044311494421 11.3825946593923568 10.0036635876192452   F   F   F
  5.5164188820000222  3.1272639273807981  7.0733985719999355   F   F   F
 -1.7423249841064405  7.2980659788730353 12.9507085543967815   T   T   T
  6.8433380737000071  2.1387159575474830  9.4912390553939066   F   F   F
 -0.2715217310000219  6.2142031953072285  6.5486541860000278   F   F   F
  6.9555122294537677 10.3785978280559128 12.4856362139165604   T   T   T
  0.3171175215618398  4.0249805846028206  8.2007859684646593   F   F   F
  7.4629911655000338  8.1184919446951636  5.2632480340000294   F   F   F
  0.3190013777340377 12.2547626290379377 11.0968599850125376   T   T   T
 -3.8921447500000625  8.2457743820528222  5.4432781900000480   F   F   F
 10.3493659711350094  0.0898370047688457 11.3605057284801205   T   T   T
  3.2500592305046090  4.1637843301391388  8.4228034078662386   F   F   F
  5.4664994475000590  5.0325422389639831  5.0000741799999835   F   F   F
 -1.6203859256106197  9.1991651877562965 10.8789038833560081   T   T   T
 12.5979302676639939  0.9363728990271432  7.9536770812343391   F   F   F
  5.2458969679999630 11.5885154774384365  5.5248185660000546   F   F   F
  5.2310252624809523  3.4443677698150750 11.5866939624932925   T   T   T
 -1.8674494155431405  7.4936018488519620  8.4230142893360380   F   F   F
  3.4975718045038984 10.6319401545881860  8.2008081474061267   F   F   F
  3.5207841500000647  2.4038939626895606  5.2632480340000294   F   F   F
 -3.6306984954670205  6.5201648372502188 11.0998814254509064   T   T   T
  1.9466436989999836  4.8758203262991824  5.4432781900000480   F   F   F
  9.0370480173282939  8.9320667457691076 11.3727969743574402   T   T   T
  9.0519364603491610  0.7328014795388347  8.4230041890754084   F   F   F
  7.1916122655000070  2.2177325747176213  5.0000741799999835   F   F   F
  0.0490063153441009  6.3740366677054698 10.9302527654980555   T   T   T
  7.1728234372985149 10.4420801122604416  7.9535764998955099   F   F   F
 -5.5173472835000625 11.1183497394440387  5.5248185660000546   F   F   F
  8.6643795367921133  2.8212311809667052 11.6043491340589107   T   T   T
  1.5854150909337490  7.0054359562447734  8.4228967116227036   F   F   F
 -3.8144492489557567 10.0824359599127149  8.2010418118753954   F   F   F
 10.4408746845000522  1.8471415326151890  5.2632480340000294   F   F   F
  3.2763596377268742  6.0144371343904943 11.1076258303421902   T   T   T
  1.9457152975000449 11.6173364763735556  5.4432781900000480   F   F   F
  2.0267506151671859  3.3005192736651279 11.3274722772923084   T   T   T
  9.1223208549549355  7.4730267560577692  8.4229746716218798   F   F   F
  8.7667525335000001  5.1191289310439565  5.0000741799999835   F   F   F
  1.6335083409034030  9.1285024618444606 10.9006747729494684   T   T   T
  1.6536898704960827  0.9911352691590165  7.9536742616725151   F   F   F
  0.2714503154999485  2.0321896631176153  5.5248185660000546   F   F   F
  7.4946735380189704  6.0983025403078974 11.6182176342443899   T   T   T
  0.2819261011864851 10.2396674650984636  8.4232233791921285   F   F   F
  2.9506068947826445  7.2789830976341694 15.1106702423124020   T   T   T
  2.3269789037316366  5.3306320420041597 13.9819379454698947   T   T   T
  2.1406083197389068  6.6356848188637914 14.3510771374865502   T   T   T
  1.1402262767046116  6.6795148501531969 14.9219983312389619   T   T   T
