In  O  C  H 
 1.0000000000000000
    14.2830999999999992    0.0000000000000000    0.0000000000000000
    -7.1415499999999996   12.3695274400000006    0.0000000000000000
     0.0000000000000000    0.0000000000000000   22.9045999999999985
 In  O   C   H  
  48  73   1   1
Selective dynamics
Cartesian
  5.1059226371330899  3.2686014086537343  9.1155121521093125   F   F   F
  5.6009034184999438  7.0742564382104325  5.8370082640000343   F   F   F
 -1.5193562618502339 11.1892785955395038 11.8410419823394246   T   T   T
 -2.0299855874999504  7.3567764449399720  6.2364644880000473   F   F   F
  5.1491777138417731 11.4650845058034747 12.1033405081661307   T   T   T
 -1.5345158516029658  2.9651311368366198  8.7926813926539040   F   F   F
  8.8993872803089609  2.7872190009579816  9.1155911629381787   F   F   F
  5.3561624999999493  1.3133964235792235  5.8370082640000343   F   F   F
 -1.7870125006395332  5.4714926242756929 11.8825863649072225   T   T   T
  1.7854589155000220  6.9329964348456183  6.2364644880000473   F   F   F
 -5.3618114041152731 11.0967530375397434 12.0962835062953946   T   T   T
  5.3406771485427296  9.5583804374062105  8.7923518900179172   F   F   F
  7.4199628149169552  6.3136783063141468  9.1149893346287758   F   F   F
 10.4675840814999539  3.9818745782104323  5.8370082640000343   F   F   F
  3.3058042704665138  8.1261602485976105 11.8755591183569216   T   T   T
  0.2447409184999950 10.4491583049399726  6.2364644880000473   F   F   F
  0.1626102956322530  2.2043592827039857 12.0930360556953573   T   T   T
 -3.8060867593734402 12.2155088251935151  8.7933608624127899   F   F   F
  2.0301284184999440  0.8894927182104322  5.8370082640000343   F   F   F
  9.2438176029642936  4.9955326562513651 11.6128722621044886   T   T   T
  8.6907763653404810  9.4038601865633407  9.1770228671277021   F   F   F
  2.0298553683211957  9.1084115575792204  8.8565206026291001   F   F   F
  8.6823394125000490  1.1720127249399717  6.2364644880000473   F   F   F
  1.4757371837917046  5.3380495725005117 11.9882424365224409   T   T   T
 12.4977124999999489  1.3133964235792235  5.8370082640000343   F   F   F
  5.3924344377331632  5.6647358410120408 11.6918657822922754   T   T   T
  1.7935575144442428  2.8245209132531293  9.1771890039081416   F   F   F
 -1.7615678230719256  9.5724959658245847  8.8566022517585576   F   F   F
  8.9270089155000214  6.9329964348456183  6.2364644880000473   F   F   F
  1.8218237934135051 10.9522721582807971 12.0410316216617996   T   T   T
  6.8968090814999545 10.1666382982104331  5.8370082640000343   F   F   F
  7.0030179882487209  1.7414433822909559 11.6014122655781389   T   T   T
 10.9400581488108486  0.1410732754065803  9.1769994246187494   F   F   F
 -0.2681249605704447  6.0575377996227981  8.8566114689295432   F   F   F
  3.8155159184999943  4.2643945849399723  6.2364644880000473   F   F   F
 -3.2395340728103252  8.4503519723174740 12.0047469832947016   T   T   T
  7.1416214155000723  4.1231345815751581  6.0367363759999577   F   F   F
  0.0063304438738714  8.2507129148108458 12.1858108221204677   T   T   T
  3.5708464155000730 10.3078983015751575  6.0367363759999577   F   F   F
  3.4075203034720496  1.8507157897328059 11.9119544231081580   T   T   T
  0.0000714155000730  4.1231345815751581  6.0367363759999577   F   F   F
  7.0583910679708994  8.3945923697958609 11.8401498581331150   T   T   T
 -3.5707035844999266 10.3078983015751575  6.0367363759999577   F   F   F
 10.8624028984547483  2.1228223371433557 11.8573270357720641   T   T   T
  7.1414897201216716 12.3694588581464462  8.9632627093319392   F   F   F
 -3.5442368031855263  6.1727268049613029  8.9732624143862871   F   F   F
 -0.0231697160155745 12.3512338166142808  8.9738976506307075   F   F   F
  3.5681635554701985  6.2134618645643194  8.9731278720581997   F   F   F
  6.8200374190000446  0.1279009137295913  6.8102247180000521   F   F   F
 -0.2280245474881442  4.1872546730250244 12.6027050558980900   T   T   T
  6.8251723357762311  8.3290255219991529  9.7318996165943048   F   F   F
  3.8991700423112339  8.2339358015629838  9.5569725027605088   F   F   F
  3.8922875810000579  0.0004947810975814  6.6301945620000318   F   F   F
 10.9505499451739503  4.1123376050825726 12.4343255536865733   T   T   T
 -5.4666045788526274 11.4426113256250979 10.0036778363888743   F   F   F
  8.8166005524999900  3.2137269241864215  7.0733985719999355   F   F   F
  1.7050720244332220  7.1943334516626045 12.9618364241854138   T   T   T
  9.0087589501792191  4.8568064465021967  9.4917467918420311   F   F   F
  1.8956530319999858  9.0272811257119674  6.5486541860000278   F   F   F
  1.7371429069555122  0.7999264065484649 12.5434527451217761   T   T   T
 10.7623158499999843  5.8423752004608422  6.8102247180000521   F   F   F
  3.6534400219296215 10.1016790671211307 12.6483556109979922   T   T   T
  3.6573753099798418  1.7462925857210088  9.7319649104904631   F   F   F
 -1.9386962787706170 11.6293032989566836  9.5571525275441545   F   F   F
 12.3365991320000106  3.3704488368512200  6.6301945620000318   F   F   F
  5.2672334706345367  7.5891226489986989 12.4018976979563771   T   T   T
 -0.0348415580924338  1.9135695223965479 10.0038743046565024   F   F   F
  7.0916305654999858  6.0285365884327824  7.0733985719999355   F   F   F
  0.0608415070285913 10.2617260724668213 12.9701947036757463   T   T   T
  5.5724734362604593  5.3733678130280422  9.4914461222013085   F   F   F
 -1.6241313009999641  9.4975705589808062  6.5486541860000278   F   F   F
 12.6565835501444912  1.1710492316038650 12.5182106988070547   T   T   T
  3.8422967309999705  6.3992513258095665  6.8102247180000521   F   F   F
 -3.3951422458034042 10.5396413070638513 12.5832542151040379   T   T   T
 10.9424864131194255  2.2939240324787695  9.7322501635351895   F   F   F
 -1.9601231167275801  4.8758233488869678  9.5571321152485655   F   F   F
  5.1959775334999998  8.9984601267767594  6.6301945620000318   F   F   F
  5.2458068011956387  0.9677490022999103 12.2947320508205653   T   T   T
  5.5015044311494421 11.3825946593923568 10.0036635876192452   F   F   F
  5.5164188820000222  3.1272639273807981  7.0733985719999355   F   F   F
 -1.7583242777038464  7.3249835118699762 12.9751818948350213   T   T   T
  6.8433380737000071  2.1387159575474830  9.4912390553939066   F   F   F
 -0.2715217310000219  6.2142031953072285  6.5486541860000278   F   F   F
  6.9517747131033367 10.4176872110852585 12.5088985860749489   T   T   T
  0.3171175215618398  4.0249805846028206  8.2007859684646593   F   F   F
  7.4629911655000338  8.1184919446951636  5.2632480340000294   F   F   F
  0.3646557950726798 12.1798741680062843 11.0714693495991181   T   T   T
 -3.8921447500000625  8.2457743820528222  5.4432781900000480   F   F   F
 10.3593432841143791  0.1027381892207476 11.3895374311441753   T   T   T
  3.2500592305046090  4.1637843301391388  8.4228034078662386   F   F   F
  5.4664994475000590  5.0325422389639831  5.0000741799999835   F   F   F
 -1.5961731385083588  9.2037260368614735 10.8931517668277849   T   T   T
 12.5979302676639939  0.9363728990271432  7.9536770812343391   F   F   F
  5.2458969679999630 11.5885154774384365  5.5248185660000546   F   F   F
 -1.8674494155431405  7.4936018488519620  8.4230142893360380   F   F   F
  3.4975718045038984 10.6319401545881860  8.2008081474061267   F   F   F
  3.5207841500000647  2.4038939626895606  5.2632480340000294   F   F   F
 -3.6292952778551597  6.5437688607405651 11.0997631760701267   T   T   T
  1.9466436989999836  4.8758203262991824  5.4432781900000480   F   F   F
  9.0447805714381779  8.9568253560705813 11.3894443370765863   T   T   T
  9.0519364603491610  0.7328014795388347  8.4230041890754084   F   F   F
  7.1916122655000070  2.2177325747176213  5.0000741799999835   F   F   F
 -0.0202323849654737  6.3882915082194671 10.8953069920107346   T   T   T
  7.1728234372985149 10.4420801122604416  7.9535764998955099   F   F   F
 -5.5173472835000625 11.1183497394440387  5.5248185660000546   F   F   F
  8.7038602492043289  2.8400999756895700 11.6337095831450732   T   T   T
  1.5854150909337490  7.0054359562447734  8.4228967116227036   F   F   F
 -3.8144492489557567 10.0824359599127149  8.2010418118753954   F   F   F
 10.4408746845000522  1.8471415326151890  5.2632480340000294   F   F   F
  3.3304463370210988  5.9604615972822854 11.0944739593108661   T   T   T
  1.9457152975000449 11.6173364763735556  5.4432781900000480   F   F   F
  2.0230030943338146  3.3436599377940905 11.3291211948120480   T   T   T
  9.1223208549549355  7.4730267560577692  8.4229746716218798   F   F   F
  8.7667525335000001  5.1191289310439565  5.0000741799999835   F   F   F
  1.6361370105246358  9.1654617052801726 10.9019543091332487   T   T   T
  1.6536898704960827  0.9911352691590165  7.9536742616725151   F   F   F
  0.2714503154999485  2.0321896631176153  5.5248185660000546   F   F   F
  7.5054387024410545  6.1555890659890578 11.5919746950981590   T   T   T
  0.2819261011864851 10.2396674650984636  8.4232233791921285   F   F   F
  5.5646458697396142  4.6654844019144734 14.5241849292383947   T   T   T
  4.1271775932140464  3.3158670422182177 13.5011273935266640   T   T   T
  4.9591972072159978  4.2427206386835659 13.4032438014415511   T   T   T
  5.2235468079823058  4.1421712602283556 15.2910091742889342   T   T   T
