In  O  H 
 1.0000000000000000
    14.2832000000000008    0.0000000000000000    0.0000000000000000
    -7.1415999999999968   12.3696140473338954    0.0000000000000000
     0.0000000000000000    0.0000000000000000   27.0000000000000000
 In  O   H  
  80  72   1
Selective dynamics
Cartesian
  0.2447426319999985 10.4492314664852799  2.7564299999999164   F   F   F
  0.2445998000000020  2.2029045656896611  8.5876200000000722   F   F   F
 10.4678002000000010  3.9819024579772861  2.3568300000000812   F   F   F
  3.3260573680000078  8.1051896045155640  8.1880200000000425   F   F   F
 -3.8154712160000201 12.2283530549133292  5.2725599999999133   F   F   F
  7.3862712160000257  6.3260680160875147  5.6721599999999404   F   F   F
 -2.0299997999999486  7.3568279546518056  2.7564299999999164   F   F   F
  5.1114573680000595 11.4801151011900835  8.5876200000000722   F   F   F
  5.6009426319999465  7.0743059698107604  2.3568300000000812   F   F   F
 -1.5408002000000458 11.1975931163490383  8.1880200000000425   F   F   F
 -1.5407287839999757  2.9511425194129073  5.2725599999999133   F   F   F
  5.1115287839999777  3.2336645042540404  5.6721599999999404   F   F   F
  1.7854714160000238  6.9330449773901934  2.7564299999999164   F   F   F
 -5.3562714159999691 11.0563321239284704  8.5876200000000722   F   F   F
  5.3562714159999727  1.3132819234054247  2.3568300000000812   F   F   F
 -1.7854714160000209  5.4365690699437019  8.1880200000000425   F   F   F
  5.3562000000000030  9.5597325203415551  5.2725599999999133   F   F   F
  8.9270000000000014  2.8098815269923407  5.6721599999999404   F   F   F
 -0.2446712160000218  6.0435460312463807  5.2725599999999133   F   F   F
 10.9570712160000241  0.1412609924205667  5.6721599999999404   F   F   F
  3.8155426319999965  4.2644244428183322  2.7564299999999164   F   F   F
 -3.3262001999999966  8.3877115893566092  8.5876200000000722   F   F   F
  6.8970002000000035 10.1667094816442347  2.3568300000000812   F   F   F
  6.8968573680000063  1.9203825808486157  8.1880200000000425   F   F   F
  2.0300712160000263  9.1359495430798550  5.2725599999999133   F   F   F
  8.6823287839999796  9.4184715279209890  5.6721599999999404   F   F   F
  8.6824002000000515  1.1720209309848582  2.7564299999999164   F   F   F
  1.5406573680000568  5.2953080775231349  8.5876200000000722   F   F   F
  2.0301426319999445  0.8894989461438125  2.3568300000000812   F   F   F
  9.1715997999999512  5.0127860926820889  8.1880200000000425   F   F   F
 -1.7853999999999974  9.5597325203415551  5.2725599999999133   F   F   F
  1.7854000000000010  2.8098815269923407  5.6721599999999404   F   F   F
  8.9270714160000253  6.9330449773901934  2.7564299999999164   F   F   F
  1.7853285840000321 11.0563321239284704  8.5876200000000722   F   F   F
 12.4978714159999722  1.3132819234054247  2.3568300000000812   F   F   F
  5.3561285839999782  5.4365690699437019  8.1880200000000425   F   F   F
  0.0000000000000000  0.0000000000000000  5.4723600000000241   F   F   F
 -3.5707999999999984  6.1848070236669477  5.4723600000000241   F   F   F
  7.1416000000000004  0.0000000000000000  5.4723600000000241   F   F   F
  3.5708000000000020  6.1848070236669477  5.4723600000000241   F   F   F
  0.0000714160000740  4.1231634503977652  2.5566299999999971   F   F   F
  7.1415285840000315  8.2464505969361301  8.3878199999999623   F   F   F
 -3.5707285839999243 10.3079704740647120  2.5566299999999971   F   F   F
 10.7123285839999269  2.0616435732691825  8.3878199999999623   F   F   F
  7.1416714160000758  4.1231634503977652  2.5566299999999971   F   F   F
 -0.0000714160000709  8.2464505969361301  8.3878199999999623   F   F   F
  3.5708714160000774 10.3079704740647120  2.5566299999999971   F   F   F
  3.5707285839999279  2.0616435732691825  8.3878199999999623   F   F   F
  1.8086101999999586  1.0495617519163183 11.2433400000000585   F   F   F
 -0.0007563830645847  2.1501308648354689 13.6552591607965681   T   T   T
  5.5363825680000556  1.2348585703453081 11.1917699999999964   F   F   F
  3.5627771625844655  2.0605185967070128 13.6668216902914867   T   T   T
  9.1873827360000391  0.9143618703789351 11.0716200000000384   F   F   F
  7.5044459907549514  2.1936152210563713 13.5570388921215557   T   T   T
 12.5031562000000260  1.0280386234738927 11.2511700000000516   F   F   F
 10.7986659137190877  2.0043066116634751 13.7223382373503089   T   T   T
 -0.1973224080000138  4.2891636709130294 11.4315299999999382   F   F   F
 -2.4184920886227435  4.9951034561155545 13.6972455450927484   T   T   T
  3.3625509440000196  3.9743569934083904 11.0689199999999488   F   F   F
  1.9468034017235551  4.9121997331825895 13.9542001436827334   T   T   T
  7.0951795999999829  4.1042379409054011 10.7970299999999781   F   F   F
  5.3953134057190040  4.7156229149700009 13.4973792418729666   T   T   T
 10.3448932640000120  4.1237819311001518 11.1707100000000263   F   F   F
  8.5020154316516834  5.4208576927082515 13.5566338482493620   T   T   T
 -1.5651530559999627  7.2555208156041529 11.6275499999999994   F   F   F
 -3.7777419411340785  8.1592039516344830 13.7348815950893535   T   T   T
  1.7988976240000245  7.0896442912294004 11.5900199999999813   F   F   F
  0.3765082172044952  8.6162767152822664 13.9477219658657674   T   T   T
  5.6232958400000399  7.0536487143516595 11.1817800000000886   F   F   F
  3.9759294114718888  8.0365801180126635 13.7701614181092644   T   T   T
  8.8988620960000535  7.4709994923087253 11.0683799999999710   F   F   F
  7.2099800262525173  8.4586817917739676 13.7681509735083001   T   T   T
 -3.4032580640000472 10.4399542559498233 11.4131700000000560   F   F   F
 -5.2021142845230273 11.3984828242800376 13.7664872070064543   T   T   T
  0.0484914640000184 10.5380452953452028 11.5573499999999694   F   F   F
 -1.6948718798716877 11.8269457016693682 13.8498722244948524   T   T   T
  3.4996696640000571 10.0839567636674943 11.4304499999999791   F   F   F
  1.9041384909467989 11.6393573456700601 13.9483595062883943   T   T   T
  7.2001611200000193 10.3758796551845975 11.2662900000000530   F   F   F
  5.2759831335361795 11.3070120666362239 13.6802852738617311   T   T   T
 10.9839236320000229  2.2760089847094056  6.2459099999999950   F   F   F
  3.8421808000000297  6.3992961312476835  3.3301799999999702   F   F   F
 -3.2993477840000498 10.5224595816455366  9.1613699999999358   F   F   F
 -0.2715236320000201  6.2142467050996304  3.0685499999999948   F   F   F
  6.8701477840000553 10.3374101554973947  8.8997399999999605   F   F   F
  6.8702191999999735  2.0909595585613525  5.9840099999999357   F   F   F
  5.1960139120000024  8.9985231310139486  3.1500899999999787   F   F   F
  5.1958710800000052  0.7521962302183308  8.9812799999999413   F   F   F
 -1.9456575039999704  4.8753596806161843  6.0658200000000031   F   F   F
  5.5165289200000469  3.1271621273064398  3.5934300000000752   F   F   F
 -1.6252139119999989  7.2504492738448061  9.4246200000000400   F   F   F
  5.5164575039999750 11.3736127242425713  6.5088900000000161   F   F   F
  6.8202280000000419  8.3742287100450419  6.2459099999999950   F   F   F
  6.8200851680000456  0.1279018092494238  3.3301799999999702   F   F   F
 -0.3214434160000328  4.2510652596472767  9.1613699999999358   F   F   F
  1.8955948879999658  9.0274680278847566  3.0685499999999948   F   F   F
  1.8956663040000385  0.7810174309486263  8.8997399999999605   F   F   F
  9.0373377199999592  4.9041808813464796  5.9840099999999357   F   F   F
  3.8923148320000585  0.0004947845618748  3.1500899999999787   F   F   F
 11.0337720000000648  4.1237819311001518  8.9812799999999413   F   F   F
  3.8922434159999870  8.2469453814980049  6.0658200000000031   F   F   F
  8.8168051120000364  3.2137494256378405  3.5934300000000752   F   F   F
  1.6750622800000436  7.3370365721761175  9.4246200000000400   F   F   F
 -5.4664663039999839 11.4602000225738827  6.5088900000000161   F   F   F
  3.6208626160000086  1.7192526564389343  6.2459099999999950   F   F   F
 10.7623197840000149  5.8425398029772122  3.3301799999999702   F   F   F
  3.6207911999999367  9.9657032533750645  9.1613699999999358   F   F   F
 -1.6242855040000073  9.4976370578239155  3.0685499999999948   F   F   F
 12.6589859120000643  1.2511864608877865  8.8997399999999605   F   F   F
  5.5174573279999866  5.3743499112856385  5.9840099999999357   F   F   F
 12.3366855040000125  3.3704724356175597  3.1500899999999787   F   F   F
  5.1949426720000185  7.4937595821558372  8.9812799999999413   F   F   F
 -1.9465859120000089 11.6169230325536024  6.0658200000000031   F   F   F
  7.0916802159999888  6.0285787982491019  3.5934300000000752   F   F   F
 -0.0500626160000043 10.1518659447873798  9.4246200000000400   F   F   F
 -0.0499911999999852  1.9054153478513380  6.5088900000000161   F   F   F
 10.4409477840000537  1.8471544656883594  1.7833499999999216   F   F   F
  3.2994191999999738  5.9703179160862128  7.6142699999999888   F   F   F
 -3.8423236320000194 10.0936050626244889  4.6988100000000514   F   F   F
  0.2713808000000294 10.2786544887725420  4.9604400000000268   F   F   F
  0.2714522159999492  2.0322038918365006  2.0449800000000864   F   F   F
  7.4131236320000244  6.1553673422342641  7.8758999999999642   F   F   F
  9.0872575039999735  7.4942543667177119  4.8789000000000433   F   F   F
  1.9457289199999983 11.6174178171155642  1.9631700000000190   F   F   F
  1.9455860880000004  3.3710909163199476  7.7943599999999833   F   F   F
  1.6251424960000300  0.9960013230913239  4.4355599999999464   F   F   F
  8.7668139120000017  5.1191647734890893  1.5201000000000053   F   F   F
  1.6250710799999575  9.2424519200274542  7.3510200000000747   F   F   F
  7.4630434160000378  8.1185487876866187  1.7833499999999216   F   F   F
  0.3215148319999593 12.2417122380844710  7.6142699999999888   F   F   F
  0.3213719999999628  3.9953853372888530  4.6988100000000514   F   F   F
 -1.8957377199999570  7.4654331659874167  4.9604400000000268   F   F   F
  5.2459336959999661 11.5885966163852689  2.0449800000000864   F   F   F
  5.2460051120000371  3.3421460194491388  7.8758999999999642   F   F   F
  3.2493565840000178  4.1226686658358904  4.8789000000000433   F   F   F
 -3.8921720000000604  8.2458321162337427  1.9631700000000190   F   F   F
  3.2492851679999468 12.3691192627720206  7.7943599999999833   F   F   F
 12.6080663039999870  0.9094140247600128  4.4355599999999464   F   F   F
  5.4665377200000620  5.0325774751577779  1.5201000000000053   F   F   F
 -1.6752051120000344  9.1558646216960557  7.3510200000000747   F   F   F
  3.5208088000000659  2.4039107939588296  1.7833499999999216   F   F   F
 -3.6207197840000123  6.5270742443566832  7.6142699999999888   F   F   F
  3.5207373839999954 10.6503613908949610  4.6988100000000514   F   F   F
  1.6241426720000185  6.9952641360482568  4.9604400000000268   F   F   F
 -5.5173859120000603 11.1184275864461100  2.0449800000000864   F   F   F
  8.7658855040000105  2.8719769895099789  7.8758999999999642   F   F   F
  9.0881859120000144  0.7526910147802934  4.8789000000000433   F   F   F
  1.9466573279999853  4.8758544651780573  1.9631700000000190   F   F   F
 -5.1950855040000077  8.9991416117163361  7.7943599999999833   F   F   F
  7.1915911999999880 10.4641986994825587  4.4355599999999464   F   F   F
  7.1916626160000092  2.2177481025465151  1.5201000000000053   F   F   F
  0.0499197840000158  6.3410352490847934  7.3510200000000747   F   F   F
  3.9030372827621118  5.8936370637026974 14.2314279464231088   T   T   T
