In  O  H 
 1.0000000000000000
    14.2830999999999992    0.0000000000000000    0.0000000000000000
    -7.1415499999999996   12.3695274400000006    0.0000000000000000
     0.0000000000000000    0.0000000000000000   22.9045999999999985
 In  O   H  
  48  71   1
Selective dynamics
Cartesian
  5.1059226371330899  3.2686014086537343  9.1155121521093125   F   F   F
  5.6009034184999438  7.0742564382104325  5.8370082640000343   F   F   F
 -1.5332865457499250 11.2168273296033405 11.8734728199215045   T   T   T
 -2.0299855874999504  7.3567764449399720  6.2364644880000473   F   F   F
  5.1751841353149111 11.4655136611880426 12.0951932757508658   T   T   T
 -1.5345158516029658  2.9651311368366198  8.7926813926539040   F   F   F
  8.8993872803089609  2.7872190009579816  9.1155911629381787   F   F   F
  5.3561624999999493  1.3133964235792235  5.8370082640000343   F   F   F
 -1.8202990266017507  5.4248829364450790 11.8714567756991958   T   T   T
  1.7854589155000220  6.9329964348456183  6.2364644880000473   F   F   F
 -5.3368412022717600 11.1149444883816138 12.0962065411360040   T   T   T
  5.3406771485427296  9.5583804374062105  8.7923518900179172   F   F   F
  7.4199628149169552  6.3136783063141468  9.1149893346287758   F   F   F
 10.4675840814999539  3.9818745782104323  5.8370082640000343   F   F   F
  3.5276035586444214  8.1730364803485429 11.6910067227687335   T   T   T
  0.2447409184999950 10.4491583049399726  6.2364644880000473   F   F   F
  0.1889327266806084  2.1577290422755242 12.0908413785557727   T   T   T
 -3.8060867593734402 12.2155088251935151  8.7933608624127899   F   F   F
  2.0301284184999440  0.8894927182104322  5.8370082640000343   F   F   F
  9.2311965453776210  4.9354668862510049 11.6125731736282471   T   T   T
  8.6907763653404810  9.4038601865633407  9.1770228671277021   F   F   F
  2.0298553683211957  9.1084115575792204  8.8565206026291001   F   F   F
  8.6823394125000490  1.1720127249399717  6.2364644880000473   F   F   F
  1.4353997535255849  5.2712294910471060 12.0580143941544389   T   T   T
 12.4977124999999489  1.3133964235792235  5.8370082640000343   F   F   F
  5.3989399381059124  5.5111370722932707 11.6230712543030368   T   T   T
  1.7935575144442428  2.8245209132531293  9.1771890039081416   F   F   F
 -1.7615678230719256  9.5724959658245847  8.8566022517585576   F   F   F
  8.9270089155000214  6.9329964348456183  6.2364644880000473   F   F   F
  1.7889168709171965 10.9419053046642194 12.0032367294069751   T   T   T
  6.8968090814999545 10.1666382982104331  5.8370082640000343   F   F   F
  6.8171176232466513  1.8947465437343483 11.6117973146769113   T   T   T
 10.9400581488108486  0.1410732754065803  9.1769994246187494   F   F   F
 -0.2681249605704447  6.0575377996227981  8.8566114689295432   F   F   F
  3.8155159184999943  4.2643945849399723  6.2364644880000473   F   F   F
 -3.2723997290003468  8.4268911753543509 12.0121719413781562   T   T   T
  7.1416214155000723  4.1231345815751581  6.0367363759999577   F   F   F
 -0.1055483482798093  8.2568830911126518 12.0606895226563129   T   T   T
  3.5708464155000730 10.3078983015751575  6.0367363759999577   F   F   F
  3.5536675454693998  1.9465764764133786 11.8487968598777673   T   T   T
  0.0000714155000730  4.1231345815751581  6.0367363759999577   F   F   F
  7.0959579069551237  8.3234395893611932 11.8582356204660098   T   T   T
 -3.5707035844999266 10.3078983015751575  6.0367363759999577   F   F   F
 10.8165350798726472  2.0925968373711634 11.8501419343688532   T   T   T
  7.1414897201216716 12.3694588581464462  8.9632627093319392   F   F   F
 -3.5442368031855263  6.1727268049613029  8.9732624143862871   F   F   F
 -0.0231697160155745 12.3512338166142808  8.9738976506307075   F   F   F
  3.5681635554701985  6.2134618645643194  8.9731278720581997   F   F   F
  6.8200374190000446  0.1279009137295913  6.8102247180000521   F   F   F
 -0.2840962241591853  4.1322520807768877 12.5727891880590246   T   T   T
  6.8251723357762311  8.3290255219991529  9.7318996165943048   F   F   F
  3.8991700423112339  8.2339358015629838  9.5569725027605088   F   F   F
  3.8922875810000579  0.0004947810975814  6.6301945620000318   F   F   F
 10.9352808546474094  4.0738141971414414 12.4493407643730976   T   T   T
 -5.4666045788526274 11.4426113256250979 10.0036778363888743   F   F   F
  8.8166005524999900  3.2137269241864215  7.0733985719999355   F   F   F
  9.0087589501792191  4.8568064465021967  9.4917467918420311   F   F   F
  1.8956530319999858  9.0272811257119674  6.5486541860000278   F   F   F
  1.8234841937707080  0.8391492265767886 12.4966127674257930   T   T   T
 10.7623158499999843  5.8423752004608422  6.8102247180000521   F   F   F
  3.6661326211866472 10.0555831844318124 12.5771124452369047   T   T   T
  3.6573753099798418  1.7462925857210088  9.7319649104904631   F   F   F
 -1.9386962787706170 11.6293032989566836  9.5571525275441545   F   F   F
 12.3365991320000106  3.3704488368512200  6.6301945620000318   F   F   F
  5.3173582905059691  7.4413479974457859 12.4520334313381529   T   T   T
 -0.0348415580924338  1.9135695223965479 10.0038743046565024   F   F   F
  7.0916305654999858  6.0285365884327824  7.0733985719999355   F   F   F
  0.0784065341111412 10.1750833696944287 12.9485017603941195   T   T   T
  5.5724734362604593  5.3733678130280422  9.4914461222013085   F   F   F
 -1.6241313009999641  9.4975705589808062  6.5486541860000278   F   F   F
 12.6472869450756740  1.1515585414581477 12.5042038587571742   T   T   T
  3.8422967309999705  6.3992513258095665  6.8102247180000521   F   F   F
 -3.3988063499458199 10.4876089290507064 12.6027864688799536   T   T   T
 10.9424864131194255  2.2939240324787695  9.7322501635351895   F   F   F
 -1.9601231167275801  4.8758233488869678  9.5571321152485655   F   F   F
  5.1959775334999998  8.9984601267767594  6.6301945620000318   F   F   F
  5.2128945060773324  0.8516038734916207 12.4426353802503833   T   T   T
  5.5015044311494421 11.3825946593923568 10.0036635876192452   F   F   F
  5.5164188820000222  3.1272639273807981  7.0733985719999355   F   F   F
 -1.7497839908234061  7.2967541610392681 12.9630567015641240   T   T   T
  6.8433380737000071  2.1387159575474830  9.4912390553939066   F   F   F
 -0.2715217310000219  6.2142031953072285  6.5486541860000278   F   F   F
  6.9634988499431936 10.3849703989795170 12.4964177582698106   T   T   T
  0.3171175215618398  4.0249805846028206  8.2007859684646593   F   F   F
  7.4629911655000338  8.1184919446951636  5.2632480340000294   F   F   F
  0.3206698452478233 12.2228739460170299 11.1133720994763383   T   T   T
 -3.8921447500000625  8.2457743820528222  5.4432781900000480   F   F   F
 10.3579781643565294  0.0565544884107807 11.3850762832600996   T   T   T
  3.2500592305046090  4.1637843301391388  8.4228034078662386   F   F   F
  5.4664994475000590  5.0325422389639831  5.0000741799999835   F   F   F
 -1.6302207220554974  9.2069972568036338 10.8852039439044184   T   T   T
 12.5979302676639939  0.9363728990271432  7.9536770812343391   F   F   F
  5.2458969679999630 11.5885154774384365  5.5248185660000546   F   F   F
  5.2425696318243542  3.4494928991662479 11.6292755114505653   T   T   T
 -1.8674494155431405  7.4936018488519620  8.4230142893360380   F   F   F
  3.4975718045038984 10.6319401545881860  8.2008081474061267   F   F   F
  3.5207841500000647  2.4038939626895606  5.2632480340000294   F   F   F
 -3.6337890258928844  6.5174543936587348 11.1138713940016025   T   T   T
  1.9466436989999836  4.8758203262991824  5.4432781900000480   F   F   F
  9.0441822510599952  8.9370307647939597 11.3747205683752330   T   T   T
  9.0519364603491610  0.7328014795388347  8.4230041890754084   F   F   F
  7.1916122655000070  2.2177325747176213  5.0000741799999835   F   F   F
  0.0071650814058805  6.3977098571777944 10.9241039624552450   T   T   T
  7.1728234372985149 10.4420801122604416  7.9535764998955099   F   F   F
 -5.5173472835000625 11.1183497394440387  5.5248185660000546   F   F   F
  8.6775361055679099  2.8086045800343102 11.6210630913557846   T   T   T
  1.5854150909337490  7.0054359562447734  8.4228967116227036   F   F   F
 -3.8144492489557567 10.0824359599127149  8.2010418118753954   F   F   F
 10.4408746845000522  1.8471415326151890  5.2632480340000294   F   F   F
  3.2745470216020816  6.0690407429711408 11.1879118447572381   T   T   T
  1.9457152975000449 11.6173364763735556  5.4432781900000480   F   F   F
  2.0422738935018638  3.3710599311651617 11.3751750791759854   T   T   T
  9.1223208549549355  7.4730267560577692  8.4229746716218798   F   F   F
  8.7667525335000001  5.1191289310439565  5.0000741799999835   F   F   F
  1.6572510262474949  9.0017335204780480 10.9788133245865787   T   T   T
  1.6536898704960827  0.9911352691590165  7.9536742616725151   F   F   F
  0.2714503154999485  2.0321896631176153  5.5248185660000546   F   F   F
  7.5057044200479144  6.0933184672622938 11.6324233247623248   T   T   T
  0.2819261011864851 10.2396674650984636  8.4232233791921285   F   F   F
  1.4970815776180422  6.6822382141994403 13.2211616983678777   T   T   T
