In  O  C  H 
 1.0000000000000000
    14.2830999999999992    0.0000000000000000    0.0000000000000000
    -7.1415499999999996   12.3695274400000006    0.0000000000000000
     0.0000000000000000    0.0000000000000000   22.9045999999999985
 In  O   C   H  
  48  74   1   1
Selective dynamics
Cartesian
  5.1059226371330899  3.2686014086537343  9.1155121521093125   F   F   F
  5.6009034184999438  7.0742564382104325  5.8370082640000343   F   F   F
 -1.5344530949228352 11.2291300179386866 11.8880043576183905   T   T   T
 -2.0299855874999504  7.3567764449399720  6.2364644880000473   F   F   F
  5.1564609084404607 11.4567479845851352 12.1066440702590707   T   T   T
 -1.5345158516029658  2.9651311368366198  8.7926813926539040   F   F   F
  8.8993872803089609  2.7872190009579816  9.1155911629381787   F   F   F
  5.3561624999999493  1.3133964235792235  5.8370082640000343   F   F   F
 -1.8103786879712958  5.4454346935640849 11.8840466213173794   T   T   T
  1.7854589155000220  6.9329964348456183  6.2364644880000473   F   F   F
 -5.3473602490704657 11.1491949532613930 12.1016672670738998   T   T   T
  5.3406771485427296  9.5583804374062105  8.7923518900179172   F   F   F
  7.4199628149169552  6.3136783063141468  9.1149893346287758   F   F   F
 10.4675840814999539  3.9818745782104323  5.8370082640000343   F   F   F
  3.3391318657744642  8.0869805635775940 11.8758788681557466   T   T   T
  0.2447409184999950 10.4491583049399726  6.2364644880000473   F   F   F
  0.2038340393510190  2.1882786337378737 12.0978681957236471   T   T   T
 -3.8060867593734402 12.2155088251935151  8.7933608624127899   F   F   F
  2.0301284184999440  0.8894927182104322  5.8370082640000343   F   F   F
  9.2112413875323700  4.9542384144197715 11.6222518405862942   T   T   T
  8.6907763653404810  9.4038601865633407  9.1770228671277021   F   F   F
  2.0298553683211957  9.1084115575792204  8.8565206026291001   F   F   F
  8.6823394125000490  1.1720127249399717  6.2364644880000473   F   F   F
  1.4688648245042792  5.3114034081838337 11.9924519192540799   T   T   T
 12.4977124999999489  1.3133964235792235  5.8370082640000343   F   F   F
  5.3653674115116088  5.4703051741566453 11.7378959076360001   T   T   T
  1.7935575144442428  2.8245209132531293  9.1771890039081416   F   F   F
 -1.7615678230719256  9.5724959658245847  8.8566022517585576   F   F   F
  8.9270089155000214  6.9329964348456183  6.2364644880000473   F   F   F
  1.7996091468020063 10.9735105335940979 11.9860411554400557   T   T   T
  6.8968090814999545 10.1666382982104331  5.8370082640000343   F   F   F
  6.7949311209691539  1.8956378880452125 11.5908996508059889   T   T   T
 10.9400581488108486  0.1410732754065803  9.1769994246187494   F   F   F
 -0.2681249605704447  6.0575377996227981  8.8566114689295432   F   F   F
  3.8155159184999943  4.2643945849399723  6.2364644880000473   F   F   F
 -3.2688367680164094  8.4506850089666781 11.9862952492144696   T   T   T
  7.1416214155000723  4.1231345815751581  6.0367363759999577   F   F   F
 -0.0054609169522488  8.2458298994785881 12.1559932613424948   T   T   T
  3.5708464155000730 10.3078983015751575  6.0367363759999577   F   F   F
  3.5627863688347512  2.0728913313215029 11.9655405331787090   T   T   T
  0.0000714155000730  4.1231345815751581  6.0367363759999577   F   F   F
  7.0526548528288897  8.3328867319072248 11.8489903528278901   T   T   T
 -3.5707035844999266 10.3078983015751575  6.0367363759999577   F   F   F
 10.8146395536137803  2.1059957074016982 11.8522752145862800   T   T   T
  7.1414897201216716 12.3694588581464462  8.9632627093319392   F   F   F
 -3.5442368031855263  6.1727268049613029  8.9732624143862871   F   F   F
 -0.0231697160155745 12.3512338166142808  8.9738976506307075   F   F   F
  3.5681635554701985  6.2134618645643194  8.9731278720581997   F   F   F
  6.8200374190000446  0.1279009137295913  6.8102247180000521   F   F   F
 -0.2610709058119360  4.1768855381052559 12.6104362867641626   T   T   T
  6.8251723357762311  8.3290255219991529  9.7318996165943048   F   F   F
  3.8991700423112339  8.2339358015629838  9.5569725027605088   F   F   F
  3.8922875810000579  0.0004947810975814  6.6301945620000318   F   F   F
 10.9286846426318309  4.0933499225355385 12.4364294981129770   T   T   T
 -5.4666045788526274 11.4426113256250979 10.0036778363888743   F   F   F
  8.8166005524999900  3.2137269241864215  7.0733985719999355   F   F   F
  1.6804785179898329  7.1860028041383606 12.9509192194505403   T   T   T
  9.0087589501792191  4.8568064465021967  9.4917467918420311   F   F   F
  1.8956530319999858  9.0272811257119674  6.5486541860000278   F   F   F
  1.8089786107320136  0.8531538665192573 12.4788047387526309   T   T   T
 10.7623158499999843  5.8423752004608422  6.8102247180000521   F   F   F
  3.6389073305429753 10.0908694040180400 12.6025176142330029   T   T   T
  3.6573753099798418  1.7462925857210088  9.7319649104904631   F   F   F
 -1.9386962787706170 11.6293032989566836  9.5571525275441545   F   F   F
 12.3365991320000106  3.3704488368512200  6.6301945620000318   F   F   F
  5.2721670139436823  7.4901305985750488 12.3675847950579634   T   T   T
 -0.0348415580924338  1.9135695223965479 10.0038743046565024   F   F   F
  7.0916305654999858  6.0285365884327824  7.0733985719999355   F   F   F
  0.0737012986385411 10.2387129569997555 12.9523095741282130   T   T   T
  5.5724734362604593  5.3733678130280422  9.4914461222013085   F   F   F
 -1.6241313009999641  9.4975705589808062  6.5486541860000278   F   F   F
 12.6435306610717682  1.1705076931983791 12.4917050639261529   T   T   T
  3.8422967309999705  6.3992513258095665  6.8102247180000521   F   F   F
 -3.4109373163554562 10.4970508139489063 12.5896192247056788   T   T   T
 10.9424864131194255  2.2939240324787695  9.7322501635351895   F   F   F
 -1.9601231167275801  4.8758233488869678  9.5571321152485655   F   F   F
  5.1959775334999998  8.9984601267767594  6.6301945620000318   F   F   F
  5.2216730550756756  0.8485741106013054 12.4397608628784972   T   T   T
  5.5015044311494421 11.3825946593923568 10.0036635876192452   F   F   F
  5.5164188820000222  3.1272639273807981  7.0733985719999355   F   F   F
 -1.7732699971010406  7.3204612838195970 12.9547648793466443   T   T   T
  6.8433380737000071  2.1387159575474830  9.4912390553939066   F   F   F
 -0.2715217310000219  6.2142031953072285  6.5486541860000278   F   F   F
  6.9609246228809578 10.4028812759772915 12.4946685504462405   T   T   T
  0.3171175215618398  4.0249805846028206  8.2007859684646593   F   F   F
  7.4629911655000338  8.1184919446951636  5.2632480340000294   F   F   F
  0.3313793821339770 12.2364542600339039 11.0859425741394748   T   T   T
 -3.8921447500000625  8.2457743820528222  5.4432781900000480   F   F   F
 10.3677769004767502  0.0818361523963980 11.3511969451554364   T   T   T
  3.2500592305046090  4.1637843301391388  8.4228034078662386   F   F   F
  5.4664994475000590  5.0325422389639831  5.0000741799999835   F   F   F
 -1.6009223115078024  9.2096227384537261 10.8906915155842015   T   T   T
 12.5979302676639939  0.9363728990271432  7.9536770812343391   F   F   F
  5.2458969679999630 11.5885154774384365  5.5248185660000546   F   F   F
  5.2680461399748140  3.3970808690726528 11.3669728733754418   T   T   T
 -1.8674494155431405  7.4936018488519620  8.4230142893360380   F   F   F
  3.4975718045038984 10.6319401545881860  8.2008081474061267   F   F   F
  3.5207841500000647  2.4038939626895606  5.2632480340000294   F   F   F
 -3.6281282399993136  6.5281808741252476 11.0909579310125164   T   T   T
  1.9466436989999836  4.8758203262991824  5.4432781900000480   F   F   F
  9.0295043568312217  8.9446213834087995 11.3560190592419854   T   T   T
  9.0519364603491610  0.7328014795388347  8.4230041890754084   F   F   F
  7.1916122655000070  2.2177325747176213  5.0000741799999835   F   F   F
 -0.0356514367441967  6.3784107195719333 10.8929505362627079   T   T   T
  7.1728234372985149 10.4420801122604416  7.9535764998955099   F   F   F
 -5.5173472835000625 11.1183497394440387  5.5248185660000546   F   F   F
  8.6775090902799761  2.8100955192448445 11.5926814003101146   T   T   T
  1.5854150909337490  7.0054359562447734  8.4228967116227036   F   F   F
 -3.8144492489557567 10.0824359599127149  8.2010418118753954   F   F   F
 10.4408746845000522  1.8471415326151890  5.2632480340000294   F   F   F
  3.2949198781061400  5.9748698848405155 11.1002074268503996   T   T   T
  1.9457152975000449 11.6173364763735556  5.4432781900000480   F   F   F
  1.9682915267394092  3.3776487900750034 11.2881593810342054   T   T   T
  9.1223208549549355  7.4730267560577692  8.4229746716218798   F   F   F
  8.7667525335000001  5.1191289310439565  5.0000741799999835   F   F   F
  1.6306355288706844  9.1507163460977381 10.8894640474630400   T   T   T
  1.6536898704960827  0.9911352691590165  7.9536742616725151   F   F   F
  0.2714503154999485  2.0321896631176153  5.5248185660000546   F   F   F
  7.5059705324138157  6.1184474486097100 11.5994561066214708   T   T   T
  0.2819261011864851 10.2396674650984636  8.4232233791921285   F   F   F
  5.1999745467436052  4.8668473552689067 13.8511653913825583   T   T   T
  3.5820448655587711  3.2397940285517062 13.8519584679785783   T   T   T
  4.4232053229686299  4.0228320635255201 14.3953230111295571   T   T   T
  4.4762993906090429  3.9803729364979472 15.5034212530335154   T   T   T
