In  O  C  H 
 1.0000000000000000
    14.2830999999999992    0.0000000000000000    0.0000000000000000
    -7.1415499999999996   12.3695274400000006    0.0000000000000000
     0.0000000000000000    0.0000000000000000   22.9045999999999985
 In  O   C   H  
  48  74   1   1
Selective dynamics
Cartesian
  5.1059226371330899  3.2686014086537343  9.1155121521093125   F   F   F
  5.6009034184999438  7.0742564382104325  5.8370082640000343   F   F   F
 -1.5415340635084422 11.2189266144145066 11.8641611794408437   T   T   T
 -2.0299855874999504  7.3567764449399720  6.2364644880000473   F   F   F
  5.1655388758923850 11.4571271974659403 12.0962120296678712   T   T   T
 -1.5345158516029658  2.9651311368366198  8.7926813926539040   F   F   F
  8.8993872803089609  2.7872190009579816  9.1155911629381787   F   F   F
  5.3561624999999493  1.3133964235792235  5.8370082640000343   F   F   F
 -1.8158499444956249  5.4241793574931849 11.8802683433426655   T   T   T
  1.7854589155000220  6.9329964348456183  6.2364644880000473   F   F   F
 -5.3481714275158208 11.0932491775044948 12.0977817371350600   T   T   T
  5.3406771485427296  9.5583804374062105  8.7923518900179172   F   F   F
  7.4199628149169552  6.3136783063141468  9.1149893346287758   F   F   F
 10.4675840814999539  3.9818745782104323  5.8370082640000343   F   F   F
  3.4609254604400732  8.1836446465639963 11.7286295706520658   T   T   T
  0.2447409184999950 10.4491583049399726  6.2364644880000473   F   F   F
  0.1776252575698965  2.1101894458326149 12.0907485944852766   T   T   T
 -3.8060867593734402 12.2155088251935151  8.7933608624127899   F   F   F
  2.0301284184999440  0.8894927182104322  5.8370082640000343   F   F   F
  9.2251838177479790  4.9387896431044682 11.6161402868747885   T   T   T
  8.6907763653404810  9.4038601865633407  9.1770228671277021   F   F   F
  2.0298553683211957  9.1084115575792204  8.8565206026291001   F   F   F
  8.6823394125000490  1.1720127249399717  6.2364644880000473   F   F   F
  1.4696652901672584  5.1353209797600368 11.9528995424066462   T   T   T
 12.4977124999999489  1.3133964235792235  5.8370082640000343   F   F   F
  5.3837467465550359  5.5091370338579395 11.6274226894250443   T   T   T
  1.7935575144442428  2.8245209132531293  9.1771890039081416   F   F   F
 -1.7615678230719256  9.5724959658245847  8.8566022517585576   F   F   F
  8.9270089155000214  6.9329964348456183  6.2364644880000473   F   F   F
  1.7820742542984203 10.9753228094702635 11.9944369962642750   T   T   T
  6.8968090814999545 10.1666382982104331  5.8370082640000343   F   F   F
  6.8086483639857018  1.9028946646805607 11.6096261828483147   T   T   T
 10.9400581488108486  0.1410732754065803  9.1769994246187494   F   F   F
 -0.2681249605704447  6.0575377996227981  8.8566114689295432   F   F   F
  3.8155159184999943  4.2643945849399723  6.2364644880000473   F   F   F
 -3.2728697273770493  8.4214982956438256 12.0149627085877153   T   T   T
  7.1416214155000723  4.1231345815751581  6.0367363759999577   F   F   F
 -0.0886086575076013  8.3030763950992181 12.0469962560985184   T   T   T
  3.5708464155000730 10.3078983015751575  6.0367363759999577   F   F   F
  3.5566709034602946  1.8949537862157060 11.8575371329960664   T   T   T
  0.0000714155000730  4.1231345815751581  6.0367363759999577   F   F   F
  7.0766019900423824  8.3156771245498113 11.8539393035063405   T   T   T
 -3.5707035844999266 10.3078983015751575  6.0367363759999577   F   F   F
 10.8116432354637819  2.0990997700793752 11.8512731625652865   T   T   T
  7.1414897201216716 12.3694588581464462  8.9632627093319392   F   F   F
 -3.5442368031855263  6.1727268049613029  8.9732624143862871   F   F   F
 -0.0231697160155745 12.3512338166142808  8.9738976506307075   F   F   F
  3.5681635554701985  6.2134618645643194  8.9731278720581997   F   F   F
  6.8200374190000446  0.1279009137295913  6.8102247180000521   F   F   F
 -0.2882962136124631  4.0972289121892915 12.5041243300510967   T   T   T
  6.8251723357762311  8.3290255219991529  9.7318996165943048   F   F   F
  3.8991700423112339  8.2339358015629838  9.5569725027605088   F   F   F
  3.8922875810000579  0.0004947810975814  6.6301945620000318   F   F   F
 10.9309987240630235  4.0772619834533703 12.4567889106943888   T   T   T
 -5.4666045788526274 11.4426113256250979 10.0036778363888743   F   F   F
  8.8166005524999900  3.2137269241864215  7.0733985719999355   F   F   F
  1.8082819369166827  7.6682768780369601 13.3630486933027122   T   T   T
  9.0087589501792191  4.8568064465021967  9.4917467918420311   F   F   F
  1.8956530319999858  9.0272811257119674  6.5486541860000278   F   F   F
  1.8143849085396782  0.8024244774907884 12.5215712987328356   T   T   T
 10.7623158499999843  5.8423752004608422  6.8102247180000521   F   F   F
  3.6573005881637797 10.0845021069045746 12.5916944114528686   T   T   T
  3.6573753099798418  1.7462925857210088  9.7319649104904631   F   F   F
 -1.9386962787706170 11.6293032989566836  9.5571525275441545   F   F   F
 12.3365991320000106  3.3704488368512200  6.6301945620000318   F   F   F
  5.2853192639799653  7.4395617701741834 12.4388469230040819   T   T   T
 -0.0348415580924338  1.9135695223965479 10.0038743046565024   F   F   F
  7.0916305654999858  6.0285365884327824  7.0733985719999355   F   F   F
  0.0502454873789567 10.2228583200689638 12.9348827519449578   T   T   T
  5.5724734362604593  5.3733678130280422  9.4914461222013085   F   F   F
 -1.6241313009999641  9.4975705589808062  6.5486541860000278   F   F   F
 12.6360042127116046  1.1376590169090992 12.5202144008332450   T   T   T
  3.8422967309999705  6.3992513258095665  6.8102247180000521   F   F   F
 -3.4028541504358065 10.4789430589974177 12.6064021542855969   T   T   T
 10.9424864131194255  2.2939240324787695  9.7322501635351895   F   F   F
 -1.9601231167275801  4.8758233488869678  9.5571321152485655   F   F   F
  5.1959775334999998  8.9984601267767594  6.6301945620000318   F   F   F
  5.2200988293695056  0.8424014805442335 12.4610104244985678   T   T   T
  5.5015044311494421 11.3825946593923568 10.0036635876192452   F   F   F
  5.5164188820000222  3.1272639273807981  7.0733985719999355   F   F   F
 -1.7244186118556739  7.2970761998780498 12.9510383628995598   T   T   T
  6.8433380737000071  2.1387159575474830  9.4912390553939066   F   F   F
 -0.2715217310000219  6.2142031953072285  6.5486541860000278   F   F   F
  6.9526058469494387 10.3673615835737163 12.5024043405275229   T   T   T
  0.3171175215618398  4.0249805846028206  8.2007859684646593   F   F   F
  7.4629911655000338  8.1184919446951636  5.2632480340000294   F   F   F
  0.3201379919853218 12.2499045381100640 11.1043428937905233   T   T   T
 -3.8921447500000625  8.2457743820528222  5.4432781900000480   F   F   F
 10.3552167689027552  0.0736086238299105 11.3752465631174164   T   T   T
  3.2500592305046090  4.1637843301391388  8.4228034078662386   F   F   F
  5.4664994475000590  5.0325422389639831  5.0000741799999835   F   F   F
 -1.6449414686748709  9.2022443501224860 10.8775779003005582   T   T   T
 12.5979302676639939  0.9363728990271432  7.9536770812343391   F   F   F
  5.2458969679999630 11.5885154774384365  5.5248185660000546   F   F   F
  5.2268442918548903  3.4442055130802731 11.6208837069115258   T   T   T
 -1.8674494155431405  7.4936018488519620  8.4230142893360380   F   F   F
  3.4975718045038984 10.6319401545881860  8.2008081474061267   F   F   F
  3.5207841500000647  2.4038939626895606  5.2632480340000294   F   F   F
 -3.6269029030099968  6.5132384028431618 11.1170382442078051   T   T   T
  1.9466436989999836  4.8758203262991824  5.4432781900000480   F   F   F
  9.0385306439132336  8.9294365529063171 11.3765936222766939   T   T   T
  9.0519364603491610  0.7328014795388347  8.4230041890754084   F   F   F
  7.1916122655000070  2.2177325747176213  5.0000741799999835   F   F   F
  0.0854299339280762  6.4012688616869795 10.9781449324902898   T   T   T
  7.1728234372985149 10.4420801122604416  7.9535764998955099   F   F   F
 -5.5173472835000625 11.1183497394440387  5.5248185660000546   F   F   F
  8.6691058903340714  2.8200834042934968 11.6278375261148330   T   T   T
  1.5854150909337490  7.0054359562447734  8.4228967116227036   F   F   F
 -3.8144492489557567 10.0824359599127149  8.2010418118753954   F   F   F
 10.4408746845000522  1.8471415326151890  5.2632480340000294   F   F   F
  3.2359335661783728  6.0526381234085935 11.1870975628784066   T   T   T
  1.9457152975000449 11.6173364763735556  5.4432781900000480   F   F   F
  2.0492528481162595  3.2671895512059228 11.3349821767685697   T   T   T
  9.1223208549549355  7.4730267560577692  8.4229746716218798   F   F   F
  8.7667525335000001  5.1191289310439565  5.0000741799999835   F   F   F
  1.6428238785659128  9.0829679687320812 10.9314283918071666   T   T   T
  1.6536898704960827  0.9911352691590165  7.9536742616725151   F   F   F
  0.2714503154999485  2.0321896631176153  5.5248185660000546   F   F   F
  7.4976314565530098  6.0949410262756736 11.6413032154731990   T   T   T
  0.2819261011864851 10.2396674650984636  8.4232233791921285   F   F   F
  2.2051676462426228  7.1416818487261304 15.5280033747598143   T   T   T
  2.0509997946715770  5.5160211904372201 14.0185131089497776   T   T   T
  2.0110403987091581  6.7548144059539244 14.2614670703708697   T   T   T
  2.1497631594484621  8.1186837291297902 15.5497758865432463   T   T   T
